NAME : XML100_3376_25
DIMENSION : 101
NB_CLUSTERS : 5
CLUSTERING_ALG : KMedoids
CLUSTERING_PARAMS : k(4)
CLUSTERS
1 0
2 2 5 12 17 22 27 28 30 31 36 40 44 49 61 63 65 69 73 76 90 98 99
3 10 15 16 18 19 20 23 24 38 41 45 48 50 57 66 78 81 82 86 88 89 93 94 95
4 1 3 4 8 14 25 26 29 33 37 39 42 52 53 55 56 58 62 67 68 74 75 83 85 96
5 6 7 9 11 13 21 32 34 35 43 46 47 51 54 59 60 64 70 71 72 77 79 80 84 87 91 92 97 100
EOF